proyfinal/src/viki/013/experimentInOfficeAgust.take6.output/13c63140-2dd7-4d4c-8511-ffc5bf8af193.als.dat
{'cnf.clauses': '118081',
 'cnf.totvars': '69608',
 'conflict literals': '4',
 'conflicts': '4',
 'decisions': '1088',
 'memused.mb': '14.79',
 'outcome': 'UNSAT',
 'propagations': '20629',
 'restarts': '1',
 'solver.msecs': 32,
 'task.msecs': 78}
