proyfinal/src/viki/013/experimentInOfficeAgust.take6.output/13c63140-2dd7-4d4c-8511-ffc5bf8af193.als.out
Reading from standard input... Use '--help' for help.
============================[ Problem Statistics ]=============================
|                                                                             |
|  Number of variables:         69608                                         |
|  Number of clauses:          118081                                         |
|  Parse time:                   0.03 s                                       |
|                                                                             |
============================[ Search Statistics ]==============================
| Conflicts |          ORIGINAL         |          LEARNT          | Progress |
|           |    Vars  Clauses Literals |    Limit  Clauses Lit/Cl |          |
===============================================================================
===============================================================================
restarts              : 1
conflicts             : 4              (122 /sec)
decisions             : 1088           (0.00 % random) (33101 /sec)
propagations          : 20629          (627613 /sec)
conflict literals     : 4              (0.00 % deleted)
Memory used           : 14.79 MB
CPU time              : 0.032869 s

UNSATISFIABLE
